language ESSENCE' 1.0
$ Problem from Gecode/examples/minesweeper.cc  problem 7
letting r be 9
letting c be 9
letting game be [
       [-1,1,-1,-1,-1,-1,-1,3,-1],
       [-1,-1,-1,3,4,3,-1,-1,-1],
       [2,4,4,-1,-1,-1,4,4,3],
       [-1,-1,-1,4,-1,4,-1,-1,-1],
       [-1,4,-1,4,-1,3,-1,6,-1],
       [-1,-1,-1,4,-1,3,-1,-1,-1],
       [1,2,3,-1,-1,-1,1,3,3],
       [-1,-1,-1,3,2,2,-1,-1,-1],
       [-1,2,-1,-1,-1,-1,-1,3,-1]
   ]

